; Benchmark for LTL-sketching problem
(set-logic QF_UF)
(set-info :status unknown)
(declare-fun z_0_0 () Bool)
(declare-fun z_0_1 () Bool)
(declare-fun z_0_10 () Bool)
(declare-fun z_0_20 () Bool)
(declare-fun z_0_31 () Bool)
(declare-fun z_0_33 () Bool)
(declare-fun z_0_39 () Bool)
(declare-fun z_0_51 () Bool)
(declare-fun z_0_58 () Bool)
(declare-fun z_0_70 () Bool)
(declare-fun z_2_0 () Bool)
(declare-fun z_2_9 () Bool)
(declare-fun z_2_8 () Bool)
(declare-fun z_2_7 () Bool)
(declare-fun z_2_6 () Bool)
(declare-fun z_2_5 () Bool)
(declare-fun z_2_4 () Bool)
(declare-fun z_2_3 () Bool)
(declare-fun z_2_2 () Bool)
(declare-fun z_2_1 () Bool)
(declare-fun z_0_2 () Bool)
(declare-fun z_0_3 () Bool)
(declare-fun z_0_4 () Bool)
(declare-fun z_0_5 () Bool)
(declare-fun z_0_6 () Bool)
(declare-fun z_0_7 () Bool)
(declare-fun z_0_8 () Bool)
(declare-fun z_0_9 () Bool)
(declare-fun z_2_19 () Bool)
(declare-fun z_2_18 () Bool)
(declare-fun z_2_17 () Bool)
(declare-fun z_2_16 () Bool)
(declare-fun z_2_15 () Bool)
(declare-fun z_2_14 () Bool)
(declare-fun z_2_13 () Bool)
(declare-fun z_2_12 () Bool)
(declare-fun z_2_11 () Bool)
(declare-fun z_2_10 () Bool)
(declare-fun z_0_11 () Bool)
(declare-fun z_0_12 () Bool)
(declare-fun z_0_13 () Bool)
(declare-fun z_0_14 () Bool)
(declare-fun z_0_15 () Bool)
(declare-fun z_0_16 () Bool)
(declare-fun z_0_17 () Bool)
(declare-fun z_0_18 () Bool)
(declare-fun z_0_19 () Bool)
(declare-fun z_2_30 () Bool)
(declare-fun z_2_29 () Bool)
(declare-fun z_2_28 () Bool)
(declare-fun z_2_27 () Bool)
(declare-fun z_2_26 () Bool)
(declare-fun z_2_25 () Bool)
(declare-fun z_2_24 () Bool)
(declare-fun z_2_23 () Bool)
(declare-fun z_2_22 () Bool)
(declare-fun z_2_21 () Bool)
(declare-fun z_2_20 () Bool)
(declare-fun z_0_21 () Bool)
(declare-fun z_0_22 () Bool)
(declare-fun z_0_23 () Bool)
(declare-fun z_0_24 () Bool)
(declare-fun z_0_25 () Bool)
(declare-fun z_0_26 () Bool)
(declare-fun z_0_27 () Bool)
(declare-fun z_0_28 () Bool)
(declare-fun z_0_29 () Bool)
(declare-fun z_0_30 () Bool)
(declare-fun z_2_32 () Bool)
(declare-fun z_2_31 () Bool)
(declare-fun z_0_32 () Bool)
(declare-fun z_2_38 () Bool)
(declare-fun z_2_37 () Bool)
(declare-fun z_2_36 () Bool)
(declare-fun z_2_35 () Bool)
(declare-fun z_2_34 () Bool)
(declare-fun z_2_33 () Bool)
(declare-fun z_0_34 () Bool)
(declare-fun z_0_35 () Bool)
(declare-fun z_0_36 () Bool)
(declare-fun z_0_37 () Bool)
(declare-fun z_0_38 () Bool)
(declare-fun z_2_50 () Bool)
(declare-fun z_2_49 () Bool)
(declare-fun z_2_48 () Bool)
(declare-fun z_2_47 () Bool)
(declare-fun z_2_46 () Bool)
(declare-fun z_2_45 () Bool)
(declare-fun z_2_44 () Bool)
(declare-fun z_2_43 () Bool)
(declare-fun z_2_42 () Bool)
(declare-fun z_2_41 () Bool)
(declare-fun z_2_40 () Bool)
(declare-fun z_2_39 () Bool)
(declare-fun z_0_40 () Bool)
(declare-fun z_0_41 () Bool)
(declare-fun z_0_42 () Bool)
(declare-fun z_0_43 () Bool)
(declare-fun z_0_44 () Bool)
(declare-fun z_0_45 () Bool)
(declare-fun z_0_46 () Bool)
(declare-fun z_0_47 () Bool)
(declare-fun z_0_48 () Bool)
(declare-fun z_0_49 () Bool)
(declare-fun z_0_50 () Bool)
(declare-fun z_2_57 () Bool)
(declare-fun z_2_56 () Bool)
(declare-fun z_2_55 () Bool)
(declare-fun z_2_54 () Bool)
(declare-fun z_2_53 () Bool)
(declare-fun z_2_52 () Bool)
(declare-fun z_2_51 () Bool)
(declare-fun z_0_52 () Bool)
(declare-fun z_0_53 () Bool)
(declare-fun z_0_54 () Bool)
(declare-fun z_0_55 () Bool)
(declare-fun z_0_56 () Bool)
(declare-fun z_0_57 () Bool)
(declare-fun z_2_69 () Bool)
(declare-fun z_2_68 () Bool)
(declare-fun z_2_67 () Bool)
(declare-fun z_2_66 () Bool)
(declare-fun z_2_65 () Bool)
(declare-fun z_2_64 () Bool)
(declare-fun z_2_63 () Bool)
(declare-fun z_2_62 () Bool)
(declare-fun z_2_61 () Bool)
(declare-fun z_2_60 () Bool)
(declare-fun z_2_59 () Bool)
(declare-fun z_2_58 () Bool)
(declare-fun z_0_59 () Bool)
(declare-fun z_0_60 () Bool)
(declare-fun z_0_61 () Bool)
(declare-fun z_0_62 () Bool)
(declare-fun z_0_63 () Bool)
(declare-fun z_0_64 () Bool)
(declare-fun z_0_65 () Bool)
(declare-fun z_0_66 () Bool)
(declare-fun z_0_67 () Bool)
(declare-fun z_0_68 () Bool)
(declare-fun z_0_69 () Bool)
(declare-fun z_2_73 () Bool)
(declare-fun z_2_72 () Bool)
(declare-fun z_2_71 () Bool)
(declare-fun z_2_70 () Bool)
(declare-fun z_0_71 () Bool)
(declare-fun z_0_72 () Bool)
(declare-fun z_0_73 () Bool)
(declare-fun x_2_p () Bool)
(declare-fun x_2_-> () Bool)
(declare-fun x_2_U () Bool)
(declare-fun x_2_v () Bool)
(declare-fun x_2_& () Bool)
(declare-fun x_2_X () Bool)
(declare-fun x_2_! () Bool)
(declare-fun x_2_F () Bool)
(declare-fun x_2_G () Bool)
(assert
 z_0_0)
(assert
 (not z_0_1))
(assert
 (not z_0_10))
(assert
 (not z_0_20))
(assert
 (not z_0_31))
(assert
 (not z_0_33))
(assert
 (not z_0_39))
(assert
 (not z_0_51))
(assert
 (not z_0_58))
(assert
 (not z_0_70))
(assert
 (= z_0_0 (and z_2_0)))
(assert
 (let (($x1593 (and z_2_1 z_2_2 z_2_3 z_2_4 z_2_5 z_2_6 z_2_7 z_2_8 z_2_9)))
 (= z_0_1 $x1593)))
(assert
 (= z_0_2 (and z_2_2 z_2_3 z_2_4 z_2_5 z_2_6 z_2_7 z_2_8 z_2_9)))
(assert
 (= z_0_3 (and z_2_3 z_2_4 z_2_5 z_2_6 z_2_7 z_2_8 z_2_9)))
(assert
 (= z_0_4 (and z_2_4 z_2_5 z_2_6 z_2_7 z_2_8 z_2_9)))
(assert
 (= z_0_5 (and z_2_5 z_2_6 z_2_7 z_2_8 z_2_9)))
(assert
 (= z_0_6 (and z_2_6 z_2_7 z_2_8 z_2_9 z_2_5)))
(assert
 (= z_0_7 (and z_2_7 z_2_8 z_2_9 z_2_5 z_2_6)))
(assert
 (= z_0_8 (and z_2_8 z_2_9 z_2_5 z_2_6 z_2_7)))
(assert
 (= z_0_9 (and z_2_9 z_2_5 z_2_6 z_2_7 z_2_8)))
(assert
 (let (($x1621 (and z_2_10 z_2_11 z_2_12 z_2_13 z_2_14 z_2_15 z_2_16 z_2_17 z_2_18 z_2_19)))
 (= z_0_10 $x1621)))
(assert
 (let (($x1623 (and z_2_11 z_2_12 z_2_13 z_2_14 z_2_15 z_2_16 z_2_17 z_2_18 z_2_19)))
 (= z_0_11 $x1623)))
(assert
 (let (($x1625 (and z_2_12 z_2_13 z_2_14 z_2_15 z_2_16 z_2_17 z_2_18 z_2_19)))
 (= z_0_12 $x1625)))
(assert
 (= z_0_13 (and z_2_13 z_2_14 z_2_15 z_2_16 z_2_17 z_2_18 z_2_19)))
(assert
 (= z_0_14 (and z_2_14 z_2_15 z_2_16 z_2_17 z_2_18 z_2_19)))
(assert
 (= z_0_15 (and z_2_15 z_2_16 z_2_17 z_2_18 z_2_19)))
(assert
 (= z_0_16 (and z_2_16 z_2_17 z_2_18 z_2_19)))
(assert
 (= z_0_17 (and z_2_17 z_2_18 z_2_19 z_2_16)))
(assert
 (= z_0_18 (and z_2_18 z_2_19 z_2_16 z_2_17)))
(assert
 (= z_0_19 (and z_2_19 z_2_16 z_2_17 z_2_18)))
(assert
 (let (($x1652 (and z_2_20 z_2_21 z_2_22 z_2_23 z_2_24 z_2_25 z_2_26 z_2_27 z_2_28 z_2_29 z_2_30)))
 (= z_0_20 $x1652)))
(assert
 (let (($x1654 (and z_2_21 z_2_22 z_2_23 z_2_24 z_2_25 z_2_26 z_2_27 z_2_28 z_2_29 z_2_30)))
 (= z_0_21 $x1654)))
(assert
 (let (($x1656 (and z_2_22 z_2_23 z_2_24 z_2_25 z_2_26 z_2_27 z_2_28 z_2_29 z_2_30)))
 (= z_0_22 $x1656)))
(assert
 (let (($x1658 (and z_2_23 z_2_24 z_2_25 z_2_26 z_2_27 z_2_28 z_2_29 z_2_30)))
 (= z_0_23 $x1658)))
(assert
 (= z_0_24 (and z_2_24 z_2_25 z_2_26 z_2_27 z_2_28 z_2_29 z_2_30)))
(assert
 (= z_0_25 (and z_2_25 z_2_26 z_2_27 z_2_28 z_2_29 z_2_30)))
(assert
 (= z_0_26 (and z_2_26 z_2_27 z_2_28 z_2_29 z_2_30 z_2_25)))
(assert
 (= z_0_27 (and z_2_27 z_2_28 z_2_29 z_2_30 z_2_25 z_2_26)))
(assert
 (= z_0_28 (and z_2_28 z_2_29 z_2_30 z_2_25 z_2_26 z_2_27)))
(assert
 (= z_0_29 (and z_2_29 z_2_30 z_2_25 z_2_26 z_2_27 z_2_28)))
(assert
 (= z_0_30 (and z_2_30 z_2_25 z_2_26 z_2_27 z_2_28 z_2_29)))
(assert
 (let (($x1676 (and z_2_31 z_2_32 z_2_3 z_2_4 z_2_5 z_2_6 z_2_7 z_2_8 z_2_9)))
 (= z_0_31 $x1676)))
(assert
 (= z_0_32 (and z_2_32 z_2_3 z_2_4 z_2_5 z_2_6 z_2_7 z_2_8 z_2_9)))
(assert
 (= z_0_33 (and z_2_33 z_2_34 z_2_35 z_2_36 z_2_37 z_2_38)))
(assert
 (= z_0_34 (and z_2_34 z_2_35 z_2_36 z_2_37 z_2_38)))
(assert
 (= z_0_35 (and z_2_35 z_2_36 z_2_37 z_2_38 z_2_34)))
(assert
 (= z_0_36 (and z_2_36 z_2_37 z_2_38 z_2_34 z_2_35)))
(assert
 (= z_0_37 (and z_2_37 z_2_38 z_2_34 z_2_35 z_2_36)))
(assert
 (= z_0_38 (and z_2_38 z_2_34 z_2_35 z_2_36 z_2_37)))
(assert
 (let (($x1710 (and z_2_39 z_2_40 z_2_41 z_2_42 z_2_43 z_2_44 z_2_45 z_2_46 z_2_47 z_2_48 z_2_49 z_2_50)))
 (= z_0_39 $x1710)))
(assert
 (let (($x1712 (and z_2_40 z_2_41 z_2_42 z_2_43 z_2_44 z_2_45 z_2_46 z_2_47 z_2_48 z_2_49 z_2_50)))
 (= z_0_40 $x1712)))
(assert
 (let (($x1714 (and z_2_41 z_2_42 z_2_43 z_2_44 z_2_45 z_2_46 z_2_47 z_2_48 z_2_49 z_2_50)))
 (= z_0_41 $x1714)))
(assert
 (let (($x1716 (and z_2_42 z_2_43 z_2_44 z_2_45 z_2_46 z_2_47 z_2_48 z_2_49 z_2_50)))
 (= z_0_42 $x1716)))
(assert
 (let (($x1718 (and z_2_43 z_2_44 z_2_45 z_2_46 z_2_47 z_2_48 z_2_49 z_2_50)))
 (= z_0_43 $x1718)))
(assert
 (= z_0_44 (and z_2_44 z_2_45 z_2_46 z_2_47 z_2_48 z_2_49 z_2_50)))
(assert
 (= z_0_45 (and z_2_45 z_2_46 z_2_47 z_2_48 z_2_49 z_2_50)))
(assert
 (= z_0_46 (and z_2_46 z_2_47 z_2_48 z_2_49 z_2_50 z_2_45)))
(assert
 (= z_0_47 (and z_2_47 z_2_48 z_2_49 z_2_50 z_2_45 z_2_46)))
(assert
 (= z_0_48 (and z_2_48 z_2_49 z_2_50 z_2_45 z_2_46 z_2_47)))
(assert
 (= z_0_49 (and z_2_49 z_2_50 z_2_45 z_2_46 z_2_47 z_2_48)))
(assert
 (= z_0_50 (and z_2_50 z_2_45 z_2_46 z_2_47 z_2_48 z_2_49)))
(assert
 (= z_0_51 (and z_2_51 z_2_52 z_2_53 z_2_54 z_2_55 z_2_56 z_2_57)))
(assert
 (= z_0_52 (and z_2_52 z_2_53 z_2_54 z_2_55 z_2_56 z_2_57)))
(assert
 (= z_0_53 (and z_2_53 z_2_54 z_2_55 z_2_56 z_2_57)))
(assert
 (= z_0_54 (and z_2_54 z_2_55 z_2_56 z_2_57)))
(assert
 (= z_0_55 (and z_2_55 z_2_56 z_2_57)))
(assert
 (= z_0_56 (and z_2_56 z_2_57)))
(assert
 (= z_0_57 (and z_2_57 z_2_56)))
(assert
 (let (($x1767 (and z_2_58 z_2_59 z_2_60 z_2_61 z_2_62 z_2_63 z_2_64 z_2_65 z_2_66 z_2_67 z_2_68 z_2_69)))
 (= z_0_58 $x1767)))
(assert
 (let (($x1769 (and z_2_59 z_2_60 z_2_61 z_2_62 z_2_63 z_2_64 z_2_65 z_2_66 z_2_67 z_2_68 z_2_69)))
 (= z_0_59 $x1769)))
(assert
 (let (($x1771 (and z_2_60 z_2_61 z_2_62 z_2_63 z_2_64 z_2_65 z_2_66 z_2_67 z_2_68 z_2_69)))
 (= z_0_60 $x1771)))
(assert
 (let (($x1773 (and z_2_61 z_2_62 z_2_63 z_2_64 z_2_65 z_2_66 z_2_67 z_2_68 z_2_69)))
 (= z_0_61 $x1773)))
(assert
 (let (($x1775 (and z_2_62 z_2_63 z_2_64 z_2_65 z_2_66 z_2_67 z_2_68 z_2_69)))
 (= z_0_62 $x1775)))
(assert
 (= z_0_63 (and z_2_63 z_2_64 z_2_65 z_2_66 z_2_67 z_2_68 z_2_69)))
(assert
 (= z_0_64 (and z_2_64 z_2_65 z_2_66 z_2_67 z_2_68 z_2_69)))
(assert
 (= z_0_65 (and z_2_65 z_2_66 z_2_67 z_2_68 z_2_69 z_2_64)))
(assert
 (= z_0_66 (and z_2_66 z_2_67 z_2_68 z_2_69 z_2_64 z_2_65)))
(assert
 (= z_0_67 (and z_2_67 z_2_68 z_2_69 z_2_64 z_2_65 z_2_66)))
(assert
 (= z_0_68 (and z_2_68 z_2_69 z_2_64 z_2_65 z_2_66 z_2_67)))
(assert
 (= z_0_69 (and z_2_69 z_2_64 z_2_65 z_2_66 z_2_67 z_2_68)))
(assert
 (let (($x1795 (and z_2_70 z_2_71 z_2_72 z_2_73 z_2_17 z_2_18 z_2_19 z_2_16)))
 (= z_0_70 $x1795)))
(assert
 (= z_0_71 (and z_2_71 z_2_72 z_2_73 z_2_17 z_2_18 z_2_19 z_2_16)))
(assert
 (= z_0_72 (and z_2_72 z_2_73 z_2_17 z_2_18 z_2_19 z_2_16)))
(assert
 (= z_0_73 (and z_2_73 z_2_17 z_2_18 z_2_19 z_2_16)))
(assert
 (and true true))
(assert
 (=> x_2_p z_2_0))
(assert
 (let (($x1826 (not z_2_1)))
 (=> x_2_p $x1826)))
(assert
 (=> x_2_p z_2_2))
(assert
 (=> x_2_p z_2_3))
(assert
 (=> x_2_p z_2_4))
(assert
 (=> x_2_p z_2_5))
(assert
 (let (($x1837 (not z_2_6)))
 (=> x_2_p $x1837)))
(assert
 (=> x_2_p z_2_7))
(assert
 (=> x_2_p z_2_8))
(assert
 (let (($x1844 (not z_2_9)))
 (=> x_2_p $x1844)))
(assert
 (=> x_2_p z_2_10))
(assert
 (=> x_2_p z_2_11))
(assert
 (let (($x1851 (not z_2_12)))
 (=> x_2_p $x1851)))
(assert
 (let (($x1854 (not z_2_13)))
 (=> x_2_p $x1854)))
(assert
 (let (($x1857 (not z_2_14)))
 (=> x_2_p $x1857)))
(assert
 (let (($x1860 (not z_2_15)))
 (=> x_2_p $x1860)))
(assert
 (=> x_2_p z_2_16))
(assert
 (let (($x1865 (not z_2_17)))
 (=> x_2_p $x1865)))
(assert
 (let (($x1868 (not z_2_18)))
 (=> x_2_p $x1868)))
(assert
 (=> x_2_p z_2_19))
(assert
 (=> x_2_p z_2_20))
(assert
 (=> x_2_p z_2_21))
(assert
 (let (($x1877 (not z_2_22)))
 (=> x_2_p $x1877)))
(assert
 (=> x_2_p z_2_23))
(assert
 (=> x_2_p z_2_24))
(assert
 (=> x_2_p z_2_25))
(assert
 (=> x_2_p z_2_26))
(assert
 (=> x_2_p z_2_27))
(assert
 (=> x_2_p z_2_28))
(assert
 (let (($x1892 (not z_2_29)))
 (=> x_2_p $x1892)))
(assert
 (let (($x1895 (not z_2_30)))
 (=> x_2_p $x1895)))
(assert
 (let (($x1898 (not z_2_31)))
 (=> x_2_p $x1898)))
(assert
 (let (($x1901 (not z_2_32)))
 (=> x_2_p $x1901)))
(assert
 (let (($x1904 (not z_2_33)))
 (=> x_2_p $x1904)))
(assert
 (let (($x1907 (not z_2_34)))
 (=> x_2_p $x1907)))
(assert
 (let (($x1910 (not z_2_35)))
 (=> x_2_p $x1910)))
(assert
 (=> x_2_p z_2_36))
(assert
 (=> x_2_p z_2_37))
(assert
 (=> x_2_p z_2_38))
(assert
 (=> x_2_p z_2_39))
(assert
 (let (($x1921 (not z_2_40)))
 (=> x_2_p $x1921)))
(assert
 (=> x_2_p z_2_41))
(assert
 (let (($x1926 (not z_2_42)))
 (=> x_2_p $x1926)))
(assert
 (=> x_2_p z_2_43))
(assert
 (let (($x1931 (not z_2_44)))
 (=> x_2_p $x1931)))
(assert
 (=> x_2_p z_2_45))
(assert
 (let (($x1936 (not z_2_46)))
 (=> x_2_p $x1936)))
(assert
 (let (($x1939 (not z_2_47)))
 (=> x_2_p $x1939)))
(assert
 (let (($x1942 (not z_2_48)))
 (=> x_2_p $x1942)))
(assert
 (let (($x1945 (not z_2_49)))
 (=> x_2_p $x1945)))
(assert
 (=> x_2_p z_2_50))
(assert
 (let (($x1950 (not z_2_51)))
 (=> x_2_p $x1950)))
(assert
 (let (($x1953 (not z_2_52)))
 (=> x_2_p $x1953)))
(assert
 (let (($x1956 (not z_2_53)))
 (=> x_2_p $x1956)))
(assert
 (=> x_2_p z_2_54))
(assert
 (=> x_2_p z_2_55))
(assert
 (=> x_2_p z_2_56))
(assert
 (let (($x1965 (not z_2_57)))
 (=> x_2_p $x1965)))
(assert
 (let (($x1968 (not z_2_58)))
 (=> x_2_p $x1968)))
(assert
 (let (($x1971 (not z_2_59)))
 (=> x_2_p $x1971)))
(assert
 (=> x_2_p z_2_60))
(assert
 (let (($x1976 (not z_2_61)))
 (=> x_2_p $x1976)))
(assert
 (let (($x1979 (not z_2_62)))
 (=> x_2_p $x1979)))
(assert
 (let (($x1982 (not z_2_63)))
 (=> x_2_p $x1982)))
(assert
 (let (($x1985 (not z_2_64)))
 (=> x_2_p $x1985)))
(assert
 (let (($x1988 (not z_2_65)))
 (=> x_2_p $x1988)))
(assert
 (=> x_2_p z_2_66))
(assert
 (let (($x1993 (not z_2_67)))
 (=> x_2_p $x1993)))
(assert
 (=> x_2_p z_2_68))
(assert
 (=> x_2_p z_2_69))
(assert
 (=> x_2_p z_2_70))
(assert
 (=> x_2_p z_2_71))
(assert
 (=> x_2_p z_2_72))
(assert
 (let (($x2006 (not z_2_73)))
 (=> x_2_p $x2006)))
(assert
 (or x_2_p))
(assert
 (let (($x1821 (not x_2_->)))
 (let (($x1819 (not x_2_U)))
 (let (($x1817 (not x_2_v)))
 (let (($x1815 (not x_2_&)))
 (let (($x1813 (not x_2_X)))
 (let (($x1811 (not x_2_!)))
 (let (($x1809 (not x_2_F)))
 (let (($x1807 (not x_2_G)))
 (and $x1807 $x1809 $x1811 $x1813 $x1815 $x1817 $x1819 $x1821))))))))))
(check-sat)

